# Solution for model MIP
# Objective value = -3.7465797423896527e+02
O_0_w0_r0 0
O_0_w0_r1 0
q_s0 1
theta -3.7079616784186328e+02
z_w0_k0_m0 7.4878308411797878e-01
z_w0_k1_m0 8.0767833618160545e-01
z_w0_k2_m0 7.3887593813953290e-01
pi_w0_t0_k0 6.5530085275555150e-01
pi_w0_t0_k1 1
pi_w0_t0_k2 5.9731681073621790e-01
pi_w0_t1_k0 3.4469914724444845e-01
pi_w0_t1_k1 0
pi_w0_t1_k2 4.0268318926378216e-01
pi_w0_t2_k0 0
pi_w0_t2_k1 0
pi_w0_t2_k2 0
n_w0_t0_k0 1.8348423877155440e+01
n_w0_t0_k1 18
n_w0_t0_k2 1.1946336214724358e+01
n_w0_t1_k0 9.6515761228445562e+00
n_w0_t1_k1 0
n_w0_t1_k2 8.0536637852756439e+00
n_w0_t2_k0 0
n_w0_t2_k1 0
n_w0_t2_k2 0
o_w0_r0 3.8294760091879795e+01
o_w0_r1 7.7052399081201965e+00
y_w0_r0 2
y_w0_r1 1
p_w0 10
s_w0 10
yb_w0_r0_s0 1
yb_w0_r1_s0 0
X(s0,w0,r0) 1
X(s0,w0,r1) 0
